c A SAT instance generated from a 3-CNF formula that had 45 clauses and 10 variables
p cnf 10 45
-3 6 1 0
9 6 10 0
-8 3 10 0
6 -3 9 0
-3 -7 10 0
1 7 -8 0
3 -2 1 0
1 8 -10 0
5 -2 3 0
-5 2 -10 0
10 6 -1 0
-9 1 10 0
-2 7 8 0
-10 3 -4 0
-7 3 1 0
5 -2 8 0
7 -2 -10 0
5 -3 1 0
4 -1 8 0
10 7 4 0
-5 8 -2 0
10 -8 5 0
-2 -4 7 0
-6 3 -7 0
4 3 -7 0
4 5 -9 0
2 10 -7 0
-4 -9 -7 0
-7 10 -5 0
8 -3 -6 0
-8 7 -3 0
10 -6 -8 0
-10 6 -3 0
1 6 -9 0
3 5 -10 0
-6 5 9 0
-3 -5 -4 0
-8 1 2 0
-7 6 -8 0
-10 -6 9 0
9 7 5 0
-9 6 2 0
4 7 -5 0
-3 10 6 0
-7 4 -6 0
%
0

29 81 99 98 60 46 98 19 68 99
